p cnf 200 1110
-101 -24 0
-101 97 0
-101 -20 0
-101 86 0
-101 -84 0
-101 -18 0
-101 99 0
-101 -57 0
-101 69 0
-101 -43 0
101 24 -97 20 -86 84 18 -99 57 -69 43 0
-102 -66 0
-102 -16 0
-102 -37 0
-102 56 0
-102 5 0
-102 -31 0
-102 -57 0
-102 -51 0
-102 18 0
-102 43 0
102 66 16 37 -56 -5 31 57 51 -18 -43 0
-103 -26 0
-103 -5 0
-103 2 0
-103 40 0
-103 -35 0
-103 -76 0
-103 7 0
-103 -62 0
-103 8 0
-103 -79 0
103 26 5 -2 -40 35 76 -7 62 -8 79 0
-104 95 0
-104 -2 0
-104 -94 0
-104 67 0
-104 39 0
-104 -24 0
-104 -18 0
-104 -54 0
-104 -82 0
-104 7 0
104 -95 2 94 -67 -39 24 18 54 82 -7 0
-105 -53 0
-105 -88 0
-105 25 0
-105 18 0
-105 -46 0
-105 -68 0
-105 86 0
-105 75 0
-105 -57 0
-105 -17 0
105 53 88 -25 -18 46 68 -86 -75 57 17 0
-106 -59 0
-106 -28 0
-106 -36 0
-106 -6 0
-106 23 0
-106 -32 0
-106 -70 0
-106 -60 0
-106 -9 0
-106 20 0
106 59 28 36 6 -23 32 70 60 9 -20 0
-107 -73 0
-107 32 0
-107 13 0
-107 -80 0
-107 93 0
-107 -52 0
-107 -56 0
-107 -29 0
-107 -12 0
-107 4 0
107 73 -32 -13 80 -93 52 56 29 12 -4 0
-108 52 0
-108 -46 0
-108 78 0
-108 -55 0
-108 -54 0
-108 -80 0
-108 20 0
-108 -41 0
-108 26 0
-108 -4 0
108 -52 46 -78 55 54 80 -20 41 -26 4 0
-109 34 0
-109 64 0
-109 -4 0
-109 -53 0
-109 -71 0
-109 17 0
-109 -58 0
-109 92 0
-109 -57 0
-109 41 0
109 -34 -64 4 53 71 -17 58 -92 57 -41 0
-110 -66 0
-110 46 0
-110 63 0
-110 23 0
-110 -10 0
-110 58 0
-110 89 0
-110 6 0
-110 -71 0
-110 -29 0
110 66 -46 -63 -23 10 -58 -89 -6 71 29 0
101 102 103 104 105 106 107 108 109 110 0
-111 -4 0
-111 -5 0
-111 37 0
-111 58 0
-111 -100 0
-111 2 0
-111 -94 0
-111 -51 0
-111 71 0
-111 -85 0
111 4 5 -37 -58 100 -2 94 51 -71 85 0
-112 -45 0
-112 -77 0
-112 -74 0
-112 -47 0
-112 -19 0
-112 -17 0
-112 11 0
-112 10 0
-112 -20 0
-112 -24 0
112 45 77 74 47 19 17 -11 -10 20 24 0
-113 52 0
-113 -87 0
-113 -83 0
-113 70 0
-113 29 0
-113 -19 0
-113 -20 0
-113 -46 0
-113 -57 0
-113 90 0
113 -52 87 83 -70 -29 19 20 46 57 -90 0
-114 -24 0
-114 -66 0
-114 45 0
-114 -77 0
-114 -97 0
-114 -37 0
-114 -46 0
-114 89 0
-114 32 0
-114 -76 0
114 24 66 -45 77 97 37 46 -89 -32 76 0
-115 90 0
-115 10 0
-115 29 0
-115 -24 0
-115 99 0
-115 -17 0
-115 35 0
-115 60 0
-115 76 0
-115 -47 0
115 -90 -10 -29 24 -99 17 -35 -60 -76 47 0
-116 -89 0
-116 5 0
-116 -29 0
-116 77 0
-116 -45 0
-116 -3 0
-116 36 0
-116 -93 0
-116 70 0
-116 -91 0
116 89 -5 29 -77 45 3 -36 93 -70 91 0
-117 -80 0
-117 -91 0
-117 -63 0
-117 40 0
-117 23 0
-117 -78 0
-117 -68 0
-117 8 0
-117 6 0
-117 -58 0
117 80 91 63 -40 -23 78 68 -8 -6 58 0
-118 98 0
-118 94 0
-118 9 0
-118 -49 0
-118 15 0
-118 26 0
-118 -61 0
-118 -12 0
-118 -41 0
-118 27 0
118 -98 -94 -9 49 -15 -26 61 12 41 -27 0
-119 -51 0
-119 -49 0
-119 -89 0
-119 61 0
-119 67 0
-119 80 0
-119 -70 0
-119 -65 0
-119 -36 0
-119 -40 0
119 51 49 89 -61 -67 -80 70 65 36 40 0
-120 21 0
-120 -35 0
-120 -20 0
-120 -41 0
-120 -44 0
-120 -51 0
-120 54 0
-120 -85 0
-120 90 0
-120 -2 0
120 -21 35 20 41 44 51 -54 85 -90 2 0
111 112 113 114 115 116 117 118 119 120 0
-121 -82 0
-121 -68 0
-121 74 0
-121 -94 0
-121 96 0
-121 12 0
-121 41 0
-121 34 0
-121 -32 0
-121 97 0
121 82 68 -74 94 -96 -12 -41 -34 32 -97 0
-122 -14 0
-122 16 0
-122 53 0
-122 -86 0
-122 69 0
-122 34 0
-122 11 0
-122 40 0
-122 18 0
-122 -99 0
122 14 -16 -53 86 -69 -34 -11 -40 -18 99 0
-123 -22 0
-123 -8 0
-123 79 0
-123 1 0
-123 88 0
-123 -7 0
-123 38 0
-123 -30 0
-123 -49 0
-123 -72 0
123 22 8 -79 -1 -88 7 -38 30 49 72 0
-124 -21 0
-124 45 0
-124 65 0
-124 -70 0
-124 -17 0
-124 71 0
-124 95 0
-124 55 0
-124 -89 0
-124 28 0
124 21 -45 -65 70 17 -71 -95 -55 89 -28 0
-125 14 0
-125 1 0
-125 -15 0
-125 -45 0
-125 24 0
-125 70 0
-125 39 0
-125 -22 0
-125 -33 0
-125 21 0
125 -14 -1 15 45 -24 -70 -39 22 33 -21 0
-126 -20 0
-126 75 0
-126 66 0
-126 -37 0
-126 41 0
-126 24 0
-126 -4 0
-126 79 0
-126 -5 0
-126 -35 0
126 20 -75 -66 37 -41 -24 4 -79 5 35 0
-127 -27 0
-127 96 0
-127 92 0
-127 -18 0
-127 -97 0
-127 -85 0
-127 -79 0
-127 55 0
-127 -99 0
-127 73 0
127 27 -96 -92 18 97 85 79 -55 99 -73 0
-128 -89 0
-128 -62 0
-128 16 0
-128 23 0
-128 65 0
-128 34 0
-128 -91 0
-128 -47 0
-128 -56 0
-128 77 0
128 89 62 -16 -23 -65 -34 91 47 56 -77 0
-129 39 0
-129 7 0
-129 -54 0
-129 -79 0
-129 22 0
-129 -55 0
-129 -9 0
-129 -56 0
-129 60 0
-129 -47 0
129 -39 -7 54 79 -22 55 9 56 -60 47 0
-130 59 0
-130 -88 0
-130 87 0
-130 82 0
-130 -95 0
-130 63 0
-130 -50 0
-130 71 0
-130 60 0
-130 31 0
130 -59 88 -87 -82 95 -63 50 -71 -60 -31 0
121 122 123 124 125 126 127 128 129 130 0
-131 -58 0
-131 -97 0
-131 -10 0
-131 -31 0
-131 -63 0
-131 4 0
-131 80 0
-131 -20 0
-131 60 0
-131 89 0
131 58 97 10 31 63 -4 -80 20 -60 -89 0
-132 -62 0
-132 9 0
-132 -99 0
-132 93 0
-132 -26 0
-132 -22 0
-132 -88 0
-132 -48 0
-132 49 0
-132 -69 0
132 62 -9 99 -93 26 22 88 48 -49 69 0
-133 91 0
-133 37 0
-133 -50 0
-133 77 0
-133 6 0
-133 28 0
-133 2 0
-133 14 0
-133 46 0
-133 -8 0
133 -91 -37 50 -77 -6 -28 -2 -14 -46 8 0
-134 20 0
-134 69 0
-134 -39 0
-134 97 0
-134 32 0
-134 11 0
-134 38 0
-134 48 0
-134 -49 0
-134 99 0
134 -20 -69 39 -97 -32 -11 -38 -48 49 -99 0
-135 -96 0
-135 51 0
-135 73 0
-135 6 0
-135 5 0
-135 -80 0
-135 65 0
-135 -87 0
-135 -39 0
-135 11 0
135 96 -51 -73 -6 -5 80 -65 87 39 -11 0
-136 -75 0
-136 81 0
-136 -35 0
-136 -38 0
-136 57 0
-136 -98 0
-136 68 0
-136 -66 0
-136 21 0
-136 -27 0
136 75 -81 35 38 -57 98 -68 66 -21 27 0
-137 -9 0
-137 -49 0
-137 96 0
-137 -32 0
-137 -57 0
-137 -75 0
-137 13 0
-137 79 0
-137 2 0
-137 98 0
137 9 49 -96 32 57 75 -13 -79 -2 -98 0
-138 85 0
-138 -61 0
-138 -72 0
-138 -12 0
-138 54 0
-138 -94 0
-138 -24 0
-138 73 0
-138 -67 0
-138 64 0
138 -85 61 72 12 -54 94 24 -73 67 -64 0
-139 36 0
-139 -76 0
-139 -31 0
-139 -40 0
-139 -95 0
-139 -5 0
-139 -90 0
-139 -14 0
-139 63 0
-139 -69 0
139 -36 76 31 40 95 5 90 14 -63 69 0
-140 -70 0
-140 43 0
-140 -92 0
-140 55 0
-140 47 0
-140 59 0
-140 -31 0
-140 -26 0
-140 -13 0
-140 -58 0
140 70 -43 92 -55 -47 -59 31 26 13 58 0
131 132 133 134 135 136 137 138 139 140 0
-141 41 0
-141 96 0
-141 75 0
-141 36 0
-141 90 0
-141 -70 0
-141 63 0
-141 2 0
-141 38 0
-141 77 0
141 -41 -96 -75 -36 -90 70 -63 -2 -38 -77 0
-142 53 0
-142 50 0
-142 45 0
-142 -12 0
-142 99 0
-142 61 0
-142 96 0
-142 -11 0
-142 -79 0
-142 -18 0
142 -53 -50 -45 12 -99 -61 -96 11 79 18 0
-143 -48 0
-143 -72 0
-143 59 0
-143 -65 0
-143 10 0
-143 63 0
-143 -24 0
-143 -73 0
-143 23 0
-143 31 0
143 48 72 -59 65 -10 -63 24 73 -23 -31 0
-144 -26 0
-144 36 0
-144 40 0
-144 8 0
-144 91 0
-144 49 0
-144 -57 0
-144 -68 0
-144 60 0
-144 96 0
144 26 -36 -40 -8 -91 -49 57 68 -60 -96 0
-145 -42 0
-145 -64 0
-145 -62 0
-145 -39 0
-145 50 0
-145 -14 0
-145 18 0
-145 -77 0
-145 49 0
-145 -90 0
145 42 64 62 39 -50 14 -18 77 -49 90 0
-146 -71 0
-146 -3 0
-146 -99 0
-146 22 0
-146 -30 0
-146 -32 0
-146 -13 0
-146 72 0
-146 45 0
-146 91 0
146 71 3 99 -22 30 32 13 -72 -45 -91 0
-147 9 0
-147 13 0
-147 86 0
-147 25 0
-147 95 0
-147 49 0
-147 6 0
-147 89 0
-147 -91 0
-147 47 0
147 -9 -13 -86 -25 -95 -49 -6 -89 91 -47 0
-148 -33 0
-148 -81 0
-148 67 0
-148 80 0
-148 -34 0
-148 52 0
-148 24 0
-148 32 0
-148 4 0
-148 -44 0
148 33 81 -67 -80 34 -52 -24 -32 -4 44 0
-149 -46 0
-149 50 0
-149 -25 0
-149 -87 0
-149 22 0
-149 -55 0
-149 -100 0
-149 -7 0
-149 -97 0
-149 75 0
149 46 -50 25 87 -22 55 100 7 97 -75 0
-150 96 0
-150 -27 0
-150 51 0
-150 36 0
-150 13 0
-150 -98 0
-150 46 0
-150 -32 0
-150 -68 0
-150 53 0
150 -96 27 -51 -36 -13 98 -46 32 68 -53 0
141 142 143 144 145 146 147 148 149 150 0
-151 -19 0
-151 -48 0
-151 -50 0
-151 92 0
-151 54 0
-151 71 0
-151 -29 0
-151 15 0
-151 81 0
-151 43 0
151 19 48 50 -92 -54 -71 29 -15 -81 -43 0
-152 -30 0
-152 -47 0
-152 -89 0
-152 38 0
-152 -56 0
-152 82 0
-152 74 0
-152 85 0
-152 -12 0
-152 10 0
152 30 47 89 -38 56 -82 -74 -85 12 -10 0
-153 -81 0
-153 -14 0
-153 40 0
-153 -49 0
-153 80 0
-153 -8 0
-153 -54 0
-153 38 0
-153 75 0
-153 92 0
153 81 14 -40 49 -80 8 54 -38 -75 -92 0
-154 52 0
-154 82 0
-154 -27 0
-154 -100 0
-154 -2 0
-154 33 0
-154 56 0
-154 80 0
-154 97 0
-154 65 0
154 -52 -82 27 100 2 -33 -56 -80 -97 -65 0
-155 76 0
-155 -46 0
-155 28 0
-155 -55 0
-155 22 0
-155 71 0
-155 23 0
-155 -98 0
-155 86 0
-155 -85 0
155 -76 46 -28 55 -22 -71 -23 98 -86 85 0
-156 -2 0
-156 98 0
-156 73 0
-156 65 0
-156 68 0
-156 -6 0
-156 7 0
-156 -56 0
-156 -21 0
-156 -95 0
156 2 -98 -73 -65 -68 6 -7 56 21 95 0
-157 23 0
-157 20 0
-157 -54 0
-157 99 0
-157 -43 0
-157 -37 0
-157 -18 0
-157 -39 0
-157 26 0
-157 -66 0
157 -23 -20 54 -99 43 37 18 39 -26 66 0
-158 -24 0
-158 42 0
-158 -83 0
-158 -15 0
-158 33 0
-158 -59 0
-158 -77 0
-158 30 0
-158 -25 0
-158 -6 0
158 24 -42 83 15 -33 59 77 -30 25 6 0
-159 70 0
-159 -92 0
-159 -78 0
-159 -93 0
-159 -82 0
-159 94 0
-159 -62 0
-159 -59 0
-159 -39 0
-159 98 0
159 -70 92 78 93 82 -94 62 59 39 -98 0
-160 20 0
-160 -1 0
-160 88 0
-160 93 0
-160 47 0
-160 2 0
-160 -19 0
-160 -36 0
-160 51 0
-160 -16 0
160 -20 1 -88 -93 -47 -2 19 36 -51 16 0
151 152 153 154 155 156 157 158 159 160 0
-161 -68 0
-161 82 0
-161 -49 0
-161 -48 0
-161 -53 0
-161 -51 0
-161 6 0
-161 25 0
-161 -30 0
-161 1 0
161 68 -82 49 48 53 51 -6 -25 30 -1 0
-162 42 0
-162 46 0
-162 4 0
-162 -100 0
-162 72 0
-162 -45 0
-162 -61 0
-162 64 0
-162 12 0
-162 -77 0
162 -42 -46 -4 100 -72 45 61 -64 -12 77 0
-163 16 0
-163 37 0
-163 -93 0
-163 39 0
-163 28 0
-163 12 0
-163 76 0
-163 56 0
-163 -84 0
-163 -35 0
163 -16 -37 93 -39 -28 -12 -76 -56 84 35 0
-164 24 0
-164 -43 0
-164 -86 0
-164 42 0
-164 38 0
-164 1 0
-164 -21 0
-164 32 0
-164 27 0
-164 30 0
164 -24 43 86 -42 -38 -1 21 -32 -27 -30 0
-165 -44 0
-165 70 0
-165 -47 0
-165 42 0
-165 87 0
-165 -88 0
-165 -74 0
-165 31 0
-165 -78 0
-165 97 0
165 44 -70 47 -42 -87 88 74 -31 78 -97 0
-166 -82 0
-166 95 0
-166 -43 0
-166 49 0
-166 -14 0
-166 -12 0
-166 -87 0
-166 -86 0
-166 -10 0
-166 54 0
166 82 -95 43 -49 14 12 87 86 10 -54 0
-167 -21 0
-167 37 0
-167 -94 0
-167 61 0
-167 11 0
-167 -100 0
-167 -26 0
-167 -65 0
-167 -90 0
-167 -15 0
167 21 -37 94 -61 -11 100 26 65 90 15 0
-168 -64 0
-168 -11 0
-168 -55 0
-168 49 0
-168 86 0
-168 30 0
-168 -46 0
-168 34 0
-168 91 0
-168 61 0
168 64 11 55 -49 -86 -30 46 -34 -91 -61 0
-169 21 0
-169 -44 0
-169 95 0
-169 -65 0
-169 -47 0
-169 55 0
-169 5 0
-169 57 0
-169 -2 0
-169 -78 0
169 -21 44 -95 65 47 -55 -5 -57 2 78 0
-170 -35 0
-170 -56 0
-170 -14 0
-170 -58 0
-170 94 0
-170 -86 0
-170 -26 0
-170 63 0
-170 64 0
-170 76 0
170 35 56 14 58 -94 86 26 -63 -64 -76 0
161 162 163 164 165 166 167 168 169 170 0
-171 -1 0
-171 -76 0
-171 32 0
-171 83 0
-171 -5 0
-171 -67 0
-171 -69 0
-171 16 0
-171 -54 0
-171 -89 0
171 1 76 -32 -83 5 67 69 -16 54 89 0
-172 74 0
-172 83 0
-172 -2 0
-172 70 0
-172 -58 0
-172 -25 0
-172 29 0
-172 33 0
-172 93 0
-172 -17 0
172 -74 -83 2 -70 58 25 -29 -33 -93 17 0
-173 -65 0
-173 85 0
-173 -15 0
-173 -45 0
-173 97 0
-173 34 0
-173 -39 0
-173 96 0
-173 -60 0
-173 -79 0
173 65 -85 15 45 -97 -34 39 -96 60 79 0
-174 15 0
-174 -4 0
-174 -61 0
-174 86 0
-174 -52 0
-174 -95 0
-174 -94 0
-174 37 0
-174 80 0
-174 79 0
174 -15 4 61 -86 52 95 94 -37 -80 -79 0
-175 70 0
-175 -57 0
-175 66 0
-175 -27 0
-175 93 0
-175 71 0
-175 65 0
-175 29 0
-175 13 0
-175 -20 0
175 -70 57 -66 27 -93 -71 -65 -29 -13 20 0
-176 38 0
-176 23 0
-176 80 0
-176 66 0
-176 65 0
-176 -100 0
-176 -2 0
-176 59 0
-176 -77 0
-176 6 0
176 -38 -23 -80 -66 -65 100 2 -59 77 -6 0
-177 86 0
-177 66 0
-177 -50 0
-177 -24 0
-177 -25 0
-177 23 0
-177 59 0
-177 -7 0
-177 -72 0
-177 85 0
177 -86 -66 50 24 25 -23 -59 7 72 -85 0
-178 58 0
-178 -25 0
-178 76 0
-178 -11 0
-178 -100 0
-178 71 0
-178 -85 0
-178 53 0
-178 96 0
-178 -12 0
178 -58 25 -76 11 100 -71 85 -53 -96 12 0
-179 17 0
-179 -74 0
-179 -63 0
-179 73 0
-179 44 0
-179 37 0
-179 -82 0
-179 55 0
-179 -36 0
-179 34 0
179 -17 74 63 -73 -44 -37 82 -55 36 -34 0
-180 -81 0
-180 -36 0
-180 92 0
-180 -15 0
-180 43 0
-180 7 0
-180 -34 0
-180 -77 0
-180 89 0
-180 -58 0
180 81 36 -92 15 -43 -7 34 77 -89 58 0
171 172 173 174 175 176 177 178 179 180 0
-181 -30 0
-181 -2 0
-181 36 0
-181 -60 0
-181 -97 0
-181 94 0
-181 76 0
-181 34 0
-181 -13 0
-181 43 0
181 30 2 -36 60 97 -94 -76 -34 13 -43 0
-182 -83 0
-182 56 0
-182 -26 0
-182 89 0
-182 74 0
-182 -79 0
-182 4 0
-182 -11 0
-182 100 0
-182 -23 0
182 83 -56 26 -89 -74 79 -4 11 -100 23 0
-183 29 0
-183 58 0
-183 90 0
-183 61 0
-183 25 0
-183 -62 0
-183 -50 0
-183 48 0
-183 26 0
-183 -69 0
183 -29 -58 -90 -61 -25 62 50 -48 -26 69 0
-184 -45 0
-184 54 0
-184 -55 0
-184 37 0
-184 35 0
-184 -21 0
-184 -30 0
-184 -22 0
-184 -51 0
-184 -72 0
184 45 -54 55 -37 -35 21 30 22 51 72 0
-185 -72 0
-185 -7 0
-185 73 0
-185 -85 0
-185 -76 0
-185 -24 0
-185 54 0
-185 6 0
-185 -78 0
-185 -55 0
185 72 7 -73 85 76 24 -54 -6 78 55 0
-186 -44 0
-186 90 0
-186 -88 0
-186 -17 0
-186 56 0
-186 83 0
-186 -8 0
-186 99 0
-186 -66 0
-186 -23 0
186 44 -90 88 17 -56 -83 8 -99 66 23 0
-187 18 0
-187 71 0
-187 17 0
-187 -56 0
-187 81 0
-187 -50 0
-187 44 0
-187 -82 0
-187 59 0
-187 -52 0
187 -18 -71 -17 56 -81 50 -44 82 -59 52 0
-188 61 0
-188 13 0
-188 -95 0
-188 17 0
-188 -75 0
-188 62 0
-188 76 0
-188 29 0
-188 93 0
-188 -21 0
188 -61 -13 95 -17 75 -62 -76 -29 -93 21 0
-189 28 0
-189 49 0
-189 -75 0
-189 1 0
-189 -47 0
-189 -86 0
-189 66 0
-189 -60 0
-189 -23 0
-189 -34 0
189 -28 -49 75 -1 47 86 -66 60 23 34 0
-190 48 0
-190 -42 0
-190 -96 0
-190 -30 0
-190 31 0
-190 -71 0
-190 -63 0
-190 24 0
-190 -68 0
-190 -87 0
190 -48 42 96 30 -31 71 63 -24 68 87 0
181 182 183 184 185 186 187 188 189 190 0
-191 -23 0
-191 88 0
-191 58 0
-191 -65 0
-191 51 0
-191 -67 0
-191 33 0
-191 -14 0
-191 -2 0
-191 -16 0
191 23 -88 -58 65 -51 67 -33 14 2 16 0
-192 36 0
-192 72 0
-192 -68 0
-192 38 0
-192 45 0
-192 84 0
-192 46 0
-192 69 0
-192 42 0
-192 -58 0
192 -36 -72 68 -38 -45 -84 -46 -69 -42 58 0
-193 -7 0
-193 -59 0
-193 -65 0
-193 43 0
-193 -84 0
-193 -68 0
-193 -23 0
-193 70 0
-193 13 0
-193 48 0
193 7 59 65 -43 84 68 23 -70 -13 -48 0
-194 -32 0
-194 90 0
-194 53 0
-194 -25 0
-194 59 0
-194 100 0
-194 -10 0
-194 95 0
-194 76 0
-194 27 0
194 32 -90 -53 25 -59 -100 10 -95 -76 -27 0
-195 72 0
-195 -94 0
-195 -91 0
-195 -36 0
-195 -44 0
-195 11 0
-195 95 0
-195 -68 0
-195 -31 0
-195 -9 0
195 -72 94 91 36 44 -11 -95 68 31 9 0
-196 -38 0
-196 -19 0
-196 2 0
-196 -51 0
-196 -93 0
-196 5 0
-196 -57 0
-196 24 0
-196 -42 0
-196 59 0
196 38 19 -2 51 93 -5 57 -24 42 -59 0
-197 73 0
-197 -10 0
-197 -20 0
-197 -84 0
-197 68 0
-197 -52 0
-197 54 0
-197 -65 0
-197 6 0
-197 24 0
197 -73 10 20 84 -68 52 -54 65 -6 -24 0
-198 77 0
-198 15 0
-198 71 0
-198 -29 0
-198 -73 0
-198 53 0
-198 81 0
-198 94 0
-198 -28 0
-198 -68 0
198 -77 -15 -71 29 73 -53 -81 -94 28 68 0
-199 -64 0
-199 -50 0
-199 -81 0
-199 -1 0
-199 -70 0
-199 86 0
-199 44 0
-199 -11 0
-199 18 0
-199 30 0
199 64 50 81 1 70 -86 -44 11 -18 -30 0
-200 27 0
-200 59 0
-200 67 0
-200 33 0
-200 -54 0
-200 -1 0
-200 -15 0
-200 -60 0
-200 12 0
-200 -38 0
200 -27 -59 -67 -33 54 1 15 60 -12 38 0
191 192 193 194 195 196 197 198 199 200 0
